 vasp.5.4.1 05Feb16 (build Jul 05 2020 17:13:04) complex

 executed on           IFC91_ompi date 2024.04.23  16:01:24

 INCAR:
 POTCAR:   PAW_PBE V 08Apr2002
 POTCAR:   PAW_PBE Mo 08Apr2002
 POTCAR:   PAW_PBE W 08Apr2002
 POTCAR:    PAW_PBE S 17Jan2003

 POTCAR:   PAW_PBE V 08Apr2002
   VRHFIN =V: p6 d4 s1

   TITEL  = PAW_PBE V 08Apr2002
   POMASS =   50.941; ZVAL   =    5.000    mass and valenz
   ENMAX  =  192.543; ENMIN  =  144.408 eV
   QCUT   =   -3.762; QGAM   =    7.524    optimization parameters

   Description
     l     E      TYP  RCUT    TYP  RCUT
     2   .000     23  2.700
     2   .000     23  2.700
     0   .000     23  2.700
     0  2.000     23  2.700
     1   .000     23  2.700
     1  2.000     23  2.700
     3   .000      7   .000

 POTCAR:   PAW_PBE Mo 08Apr2002
   VRHFIN =Mo: 4p5s4d

[...]

 POTCAR:   PAW_PBE W 08Apr2002
   VRHFIN =W : 6s5d

   TITEL  = PAW_PBE W 08Apr2002
   POMASS =  183.850; ZVAL   =    6.000    mass and valenz
   ENMAX  =  223.057; ENMIN  =  167.293 eV
   QCUT   =   -4.049; QGAM   =    8.098    optimization parameters

[...]

 POTCAR:    PAW_PBE S 17Jan2003
   VRHFIN =S : s2p4

   TITEL  = PAW_PBE S 17Jan2003
   POMASS =   32.066; ZVAL   =    6.000    mass and valenz
   ENMAX  =  280.000; ENMIN  =  194.016 eV
   QCUT   =   -4.360; QGAM   =    8.721    optimization parameters

   Description
     l     E      TYP  RCUT    TYP  RCUT
     0   .000     23  1.900
     0   .000     23  1.900
     1   .000     23  1.900
     1   .000     23  1.900
     2   .000     23  1.900

 PAW_PBE V 08Apr2002                    :
 PAW_PBE Mo 08Apr2002                   :
 PAW_PBE W 08Apr2002                    :
  PAW_PBE S 17Jan2003                   :

 POSCAR: crystal structure from VMoWS2 with Hexag
  positions in cartesian coordinates
 exchange correlation table for  LEXCH =        8
   RHO(1)=    0.500       N(1)  =     2000
   RHO(2)=  100.500       N(2)  =     4000

 ion  position               nearest neighbor table
   1  0.667  0.333  0.000-  19 2.34  22 2.34  25 2.36  24 2.36  17 2.36  16 2.36
   2  0.000  0.667  0.000-  27 2.34  12 2.34  14 2.36  15 2.36  24 2.36  25 2.36
   3  0.667  0.667  0.000-  21 2.34  24 2.34  27 2.36  26 2.36  19 2.36  18 2.36
   4  0.333  0.000  0.000-  11 2.34  20 2.34  17 2.36  16 2.36  15 2.36  14 2.36   9 3.34   8 3.34
                             5 3.34   6 3.34
   5  0.667  0.000  0.000-  17 2.34  26 2.34  23 2.36  22 2.36  21 2.36  20 2.36   6 3.34   4 3.34
                             7 3.36   9 3.36
   6  0.000  0.000  0.000-  23 2.34  14 2.34  11 2.36  10 2.36  27 2.36  26 2.36   5 3.34   7 3.34
                             4 3.34   8 3.36
   7  1.000  0.333  0.000-  25 2.34  10 2.34  13 2.36  12 2.36  22 2.36  23 2.36   6 3.34   8 3.34
                             5 3.36   9 3.36
   8  0.333  0.333  0.000-  13 2.34  16 2.34  19 2.36  18 2.36  11 2.36  10 2.36   9 3.34   4 3.34
                             7 3.34   6 3.36
   9  0.333  0.667  0.000-  15 2.34  18 2.34  20 2.36  21 2.36  13 2.36  12 2.36   4 3.34   8 3.34
                             5 3.36   7 3.36
  10  0.111  0.222  0.955-   7 2.34   6 2.36   8 2.36
  11  0.222  0.111  0.045-   4 2.34   6 2.36   8 2.36
  12  0.111  0.556  0.955-   2 2.34   7 2.36   9 2.36
  13  0.222  0.444  0.045-   8 2.34   7 2.36   9 2.36
  14  0.111  0.889  0.955-   6 2.34   2 2.36   4 2.36
  15  0.222  0.777  0.045-   9 2.34   2 2.36   4 2.36
  16  0.444  0.222  0.955-   8 2.34   4 2.36   1 2.36
  17  0.556  0.111  0.045-   5 2.34   4 2.36   1 2.36
  18  0.444  0.556  0.955-   9 2.34   8 2.36   3 2.36
  19  0.556  0.444  0.045-   1 2.34   8 2.36   3 2.36
  20  0.444  0.889  0.955-   4 2.34   9 2.36   5 2.36
  21  0.556  0.777  0.045-   3 2.34   9 2.36   5 2.36
  22  0.777  0.222  0.955-   1 2.34   5 2.36   7 2.36
  23  0.889  0.111  0.045-   6 2.34   5 2.36   7 2.36
  24  0.777  0.556  0.955-   3 2.34   1 2.36   2 2.36
  25  0.889  0.444  0.045-   7 2.34   1 2.36   2 2.36
  26  0.777  0.889  0.955-   5 2.34   3 2.36   6 2.36
  27  0.889  0.777  0.045-   2 2.34   3 2.36   6 2.36

IMPORTANT INFORMATION: All symmetrisations will be switched off!
NOSYMM: (Re-)initialisation of all symmetry stuff for point group C_1.

 KPOINTS: K-POINTS 	#supercell of CrS2 in hexagona

Automatic generation of k-mesh.
Space group operators:
 irot       det(A)        alpha          n_x          n_y          n_z        tau_x        tau_y        tau_z
    1     1.000000     0.000000     1.000000     0.000000     0.000000     0.000000     0.000000     0.000000

 Subroutine IBZKPT returns following result:

 Found     34 irreducible k-points:

 Following reciprocal coordinates:
            Coordinates               Weight
  0.000000  0.000000  0.000000      1.000000
  0.125000  0.000000  0.000000      2.000000
  0.250000  0.000000  0.000000      2.000000
  0.375000  0.000000  0.000000      2.000000
  0.500000  0.000000  0.000000      1.000000
  0.000000  0.125000  0.000000      2.000000
  0.125000  0.125000  0.000000      2.000000
  0.250000  0.125000  0.000000      2.000000
  0.375000  0.125000  0.000000      2.000000
  0.500000  0.125000  0.000000      2.000000
 -0.375000  0.125000  0.000000      2.000000
 -0.250000  0.125000  0.000000      2.000000
 -0.125000  0.125000  0.000000      2.000000
  0.000000  0.250000  0.000000      2.000000
  0.125000  0.250000  0.000000      2.000000
  0.250000  0.250000  0.000000      2.000000
  0.375000  0.250000  0.000000      2.000000
  0.500000  0.250000  0.000000      2.000000
 -0.375000  0.250000  0.000000      2.000000
 -0.250000  0.250000  0.000000      2.000000
 -0.125000  0.250000  0.000000      2.000000
 -0.000000  0.375000  0.000000      2.000000
  0.125000  0.375000  0.000000      2.000000
  0.250000  0.375000  0.000000      2.000000
  0.375000  0.375000  0.000000      2.000000
  0.500000  0.375000  0.000000      2.000000
 -0.375000  0.375000  0.000000      2.000000
 -0.250000  0.375000  0.000000      2.000000
 -0.125000  0.375000  0.000000      2.000000
  0.000000  0.500000  0.000000      1.000000
  0.125000  0.500000  0.000000      2.000000
  0.250000  0.500000  0.000000      2.000000
  0.375000  0.500000  0.000000      2.000000
  0.500000  0.500000  0.000000      1.000000

 Following cartesian coordinates:
            Coordinates               Weight
  0.000000  0.000000  0.000000      1.000000
  0.007209  0.012401  0.000000      2.000000
  0.014418  0.024802  0.000000      2.000000
  0.021626  0.037202  0.000000      2.000000
  0.028835  0.049603  0.000000      1.000000
 -0.007209  0.012401  0.000000      2.000000
  0.000000  0.024802  0.000000      2.000000
  0.007209  0.037202  0.000000      2.000000
  0.014418  0.049603  0.000000      2.000000
  0.021626  0.062004  0.000000      2.000000
 -0.028835 -0.024802  0.000000      2.000000
 -0.021626 -0.012401  0.000000      2.000000
 -0.014418  0.000000  0.000000      2.000000
 -0.014418  0.024802  0.000000      2.000000
 -0.007209  0.037202  0.000000      2.000000
  0.000000  0.049603  0.000000      2.000000
  0.007209  0.062004  0.000000      2.000000
  0.014418  0.074405  0.000000      2.000000
 -0.036044 -0.012401  0.000000      2.000000
 -0.028835  0.000000  0.000000      2.000000
 -0.021626  0.012401  0.000000      2.000000
 -0.021626  0.037202  0.000000      2.000000
 -0.014418  0.049603  0.000000      2.000000
 -0.007209  0.062004  0.000000      2.000000
  0.000000  0.074405  0.000000      2.000000
  0.007209  0.086806  0.000000      2.000000
 -0.043253  0.000000  0.000000      2.000000
 -0.036044  0.012401  0.000000      2.000000
 -0.028835  0.024802  0.000000      2.000000
 -0.028835  0.049603  0.000000      1.000000
 -0.021626  0.062004  0.000000      2.000000
 -0.014418  0.074405  0.000000      2.000000
 -0.007209  0.086806  0.000000      2.000000
  0.000000  0.099206  0.000000      1.000000

 I would recommend the setting:
   dimension x,y,z NGX =    41 NGY =   41 NGZ =  123
 SYSTEM =  unknown system
 POSCAR =  crystal structure from VMoWS2 with Hexag

 Startparameter for this run:
   NWRITE =      2    write-flag & timer
   PREC   = normal    normal or accurate (medium, high low for compatibility)
   ISTART =      0    job   : 0-new  1-cont  2-samecut
   ICHARG =      2    charge: 1-file 2-atom 10-const
   ISPIN  =      1    spin polarized calculation?
   LNONCOLLINEAR =      F non collinear calculations
   LSORBIT =      F    spin-orbit coupling
   INIWAV =      1    electr: 0-lowe 1-rand  2-diag
   LASPH  =      F    aspherical Exc in radial PAW
   METAGGA=      F    non-selfconsistent MetaGGA calc.

 Electronic Relaxation 1
   ENCUT  =  280.0 eV  20.58 Ry    4.54 a.u.  13.68 13.68 40.93*2*pi/ulx,y,z
   ENINI  =  280.0     initial cutoff
   ENAUG  =  373.4 eV  augmentation charge cutoff
   NELM   =     60;   NELMIN=  2; NELMDL= -5     # of ELM steps
   EDIFF  = 0.1E-03   stopping-criterion for ELM
   LREAL  =      F    real-space projection
   NLSPLINE    = F    spline interpolate recip. space projectors
   LCOMPAT=      F    compatible to vasp.4.4
   GGA_COMPAT  = T    GGA compatible to vasp.4.4-vasp.4.6
   LMAXPAW     = -100 max onsite density
   LMAXMIX     =    2 max onsite mixed and CHGCAR
   VOSKOWN=      0    Vosko Wilk Nusair interpolation
   ROPT   =    0.00000   0.00000   0.00000   0.00000
 Ionic relaxation
   EDIFFG = 0.1E-02   stopping-criterion for IOM
   NSW    =    100    number of steps for IOM
   NBLOCK =      1;   KBLOCK =    100    inner block; outer block
   IBRION =      1    ionic relax: 0-MD 1-quasi-New 2-CG
   NFREE  =      0    steps in history (QN), initial steepest desc. (CG)
   ISIF   =      3    stress and relaxation
   IWAVPR =     11    prediction:  0-non 1-charg 2-wave 3-comb
   ISYM   =      0    0-nonsym 1-usesym 2-fastsym
   LCORR  =      T    Harris-Foulkes like correction to forces

   POTIM  = 0.5000    time-step for ionic-motion
   TEIN   =    0.0    initial temperature
   TEBEG  =    0.0;   TEEND  =   0.0 temperature during run
   SMASS  =  -3.00    Nose mass-parameter (am)
   estimated Nose-frequenzy (Omega)   =  0.10E-29 period in steps =****** mass=  -0.230E-26a.u.
   SCALEE = 1.0000    scale energy and forces
   NPACO  =    256;   APACO  = 16.0  distance and # of slots for P.C.
   PSTRESS=    0.0 pullay stress

  Mass of Ions in am
   POMASS =  50.94 95.94183.85 32.07
  Ionic Valenz
   ZVAL   =   5.00  6.00  6.00  6.00
  Atomic Wigner-Seitz radii
  virtual crystal weights
   VCA    =   1.00  1.00  1.00  1.00
   NELECT =     159.0000    total number of electrons
   NUPDOWN=      -1.0000    fix difference up-down

 DOS related values:
   EMIN   =  10.00;   EMAX   =-10.00  energy-range for DOS
   EFERMI =   0.00
   ISMEAR =     0;   SIGMA  =   0.20  broadening in eV -4-tet -1-fermi 0-gaus

 Electronic relaxation 2 (details)
   IALGO  =     38    algorithm
   LDIAG  =      T    sub-space diagonalisation (order eigenvalues)
   LSUBROT=      F    optimize rotation matrix (better conditioning)
   TURBO    =      0    0=normal 1=particle mesh
   IRESTART =      0    0=no restart 2=restart with 2 vectors
   NREBOOT  =      0    no. of reboots
   NMIN     =      0    reboot dimension
   EREF     =   0.00    reference energy to select bands
[...]
      1.92100      3.35900     28.66200         0.341426      0.711347     -2.167565
      3.85900      3.35900      1.33800        -0.513171      0.680471      2.150848
     -0.96900      5.03900     28.66200         0.471986      0.548599     -2.128368
      0.96900      5.03900      1.33800         0.236110      0.528484      1.400467
     -3.85900      6.71900     28.66200         0.204398     -0.138746     -2.889253
     -1.92100      6.71900      1.33800         0.646043     -0.151855      2.143941
      4.81100      5.03900     28.66200        -0.662413      0.179272     -2.119864
      6.74900      5.03900      1.33800        -0.220155      0.124295      2.892436
      1.92100      6.71900     28.66200         0.059213      0.009936     -0.764039
      3.85900      6.71900      1.33800        -0.747651      0.002987      1.443853
     -0.96900      8.39900     28.66200         0.544314     -0.677739     -2.132734
      0.96900      8.39900      1.33800         0.327933     -0.676980      1.425830
    total drift:                               -0.000029      0.000143      0.000060

  FREE ENERGIE OF THE ION-ELECTRON SYSTEM (eV)
  free  energy   TOTEN  =      -186.82612063 eV

  energy  without entropy=     -186.48496461  energy(sigma->0) =     -186.65554262

 Quasi-Newton relaxation of ions (Broydens 2nd method)
  g(Force)  = 0.474E+01   g(Stress)= 0.349E+00

 Reset! Starting new Quasi-Newton update for ions

[...]

 d Force = 0.2406517E+01[ 0.697E-01, 0.474E+01]  d Energy = 0.1829423E+01 0.577E+00
 d Force = 0.9607932E+03[ 0.943E+03, 0.978E+03]  d Ewald  = 0.2511525E+04-0.155E+04

[...]

 retain information from N=  1 steps
 eigenvalues of (default step * inverse Hessian matrix)
  average eigenvalue of G=   0.2401
 eigenvalue spectrum of G is  0.2401

[...]

 d Force = 0.3715874E-01[ 0.367E-01, 0.376E-01]  d Energy = 0.1095768E+01-0.106E+01
 d Force =-0.3073342E+01[-0.315E+01,-0.300E+01]  d Ewald  =-0.1924389E+04 0.192E+04

[...]

 d Force = 0.4966023E+00[ 0.444E+00, 0.549E+00]  d Energy = 0.1021271E+01-0.525E+00
 d Force = 0.4105723E+03[ 0.420E+03, 0.401E+03]  d Ewald  =-0.1527214E+04 0.194E+04

[...]

 d Force = 0.1584484E+00[ 0.132E+00, 0.185E+00]  d Energy = 0.1650605E+00-0.661E-02
 d Force =-0.1252129E+02[-0.120E+02,-0.130E+02]  d Ewald  = 0.1626695E+03-0.175E+03

[...]

 d Force = 0.1429292E-01[ 0.137E-01, 0.148E-01]  d Energy = 0.1418722E-01 0.106E-03
 d Force = 0.2079879E+01[ 0.213E+01, 0.203E+01]  d Ewald  = 0.1701807E+01 0.378E+00

[...]

 d Force =-0.1759118E-02[-0.332E-02,-0.194E-03]  d Energy =-0.1765661E-02 0.654E-05
 d Force =-0.2240527E+01[-0.222E+01,-0.226E+01]  d Ewald  =-0.1832387E+02 0.161E+02

[...]

 d Force = 0.3390863E-06[-0.184E-03, 0.185E-03]  d Energy = 0.2739230E-04-0.271E-04
 d Force = 0.9875384E+00[ 0.989E+00, 0.987E+00]  d Ewald  = 0.3019546E+02-0.292E+02

[...]

 d Force = 0.1412286E-02[ 0.139E-02, 0.143E-02]  d Energy = 0.1281477E-02 0.131E-03
 d Force =-0.1565748E+01[-0.156E+01,-0.157E+01]  d Ewald  = 0.3254005E+01-0.482E+01

[...]

 d Force = 0.7091200E-03[ 0.685E-03, 0.734E-03]  d Energy = 0.6512196E-03 0.579E-04
 d Force =-0.3224736E+00[-0.321E+00,-0.324E+00]  d Ewald  =-0.5945777E+01 0.562E+01

[...]

 FEWALD executed in parallel

[...]

 eigenvalue-minimisations  : 12160
 total energy-change (2. order) :-0.2537559E-03  (-0.2388011E-03)
 number of electron     158.9999772 magnetization
 augmentation part       -4.2197051 magnetization

 Broyden mixing:
  rms(total) = 0.10002E-01    rms(broyden)= 0.99998E-02
  rms(prec ) = 0.11162E-01
  weight for this iteration     100.00

 eigenvalues of (default mixing * dielectric matrix)
  average eigenvalue GAMMA=   0.3409
  0.3409

[...]

----------------------------------------- Iteration   24(   3)  ---------------------------------------

 eigenvalue-minimisations  :  9560
 total energy-change (2. order) : 0.9560024E-04  (-0.4433208E-04)
 number of electron     158.9999772 magnetization
 augmentation part       -4.2197051 magnetization

 Free energy of the ion-electron system (eV)
  alpha Z        PSCENC =        89.55147066
  Ewald energy   TEWEN  =     44412.83128052
  -Hartree energ DENC   =    -50420.71722391
  -exchange      EXHF   =         0.00000000
  -V(xc)+E(xc)   XCENC  =      -233.50843280
  PAW double counting   =      4099.13977897    -3515.19304618
  entropy T*S    EENTRO =        -0.13291806
  eigenvalues    EBANDS =     -1385.75033128
  atomic energy  EATOM  =      6761.44252427
  Solvation  Ediel_sol  =         0.00000000
  free energy    TOTEN  =      -192.33689782 eV

  energy without entropy =     -192.20397976  energy(sigma->0) =     -192.27043879

 average (electrostatic) potential at core
  the test charge radii are     1.2064  1.2296  1.1823  0.9698
  (the norm of the test charge is              1.0000)
       1 -49.7083       2 -49.7822       3 -49.7799       4 -47.0569       5 -47.0596
       6 -47.1513       7 -49.5915       8 -49.5887       9 -49.6150      10 -95.2246
      11 -95.2392      12 -94.6792      13 -94.8464      14 -95.0047      15 -95.1211
      16 -95.1032      17 -94.9920      18 -94.6798      19 -94.5609      20 -95.2886
      21 -95.1204      22 -95.1030      23 -95.2380      24 -94.4866      25 -94.5615
      26 -95.0016      27 -94.9558

 E-fermi :  -3.2471     XC(G=0):  -2.5638     alpha+bet : -2.3685

[...]

 k-point    34 :       0.5000    0.5000    0.0000
  band No.  band energies     occupation
      1     -17.5066      2.00000
      2     -17.3494      2.00000
      3     -16.7443      2.00000
      4     -16.7162      2.00000
      5     -16.5835      2.00000
      6     -16.5512      2.00000
      7     -16.2772      2.00000
      8     -16.1982      2.00000
      9     -16.1164      2.00000
     10     -16.0809      2.00000
     11     -15.8781      2.00000
     12     -15.8342      2.00000
     13     -15.7679      2.00000
     14     -15.6974      2.00000
     15     -15.6408      2.00000
     16     -15.4306      2.00000
     17     -15.3387      2.00000
     18     -15.2138      2.00000
     19      -9.8151      2.00000
     20      -9.3530      2.00000
     21      -9.3033      2.00000
     22      -9.0087      2.00000
     23      -8.9401      2.00000
     24      -8.8330      2.00000
     25      -8.6784      2.00000
     26      -8.6618      2.00000
     27      -8.4417      2.00000
     28      -8.2929      2.00000
     29      -8.2298      2.00000
     30      -8.1333      2.00000
     31      -8.0817      2.00000
     32      -8.0135      2.00000
     33      -7.9230      2.00000
     34      -7.8457      2.00000
     35      -7.7459      2.00000
     36      -7.6825      2.00000
     37      -7.6417      2.00000
     38      -7.5951      2.00000
     39      -7.4667      2.00000
     40      -7.3351      2.00000
     41      -7.0928      2.00000
     42      -7.0714      2.00000
     43      -7.0005      2.00000
     44      -6.8539      2.00000
     45      -6.8268      2.00000
     46      -6.7121      2.00000
     47      -6.6503      2.00000
     48      -6.5887      2.00000
     49      -6.5213      2.00000
     50      -6.4594      2.00000
     51      -6.4122      2.00000
     52      -6.3444      2.00000
     53      -6.2675      2.00000
     54      -6.1820      2.00000
     55      -6.1110      2.00000
     56      -6.0966      2.00000
     57      -6.0091      2.00000
     58      -5.8450      2.00000
     59      -5.8140      2.00000
     60      -5.7907      2.00000
[...]
    106      -0.4057      0.00000
    107      -0.2966      0.00000
    108      -0.1138      0.00000
    109       0.0221      0.00000
    110       0.2004      0.00000
    111       0.2781      0.00000
    112       0.5877      0.00000
    113       0.7741      0.00000
    114       1.0496      0.00000
    115       1.1439      0.00000
    116       1.3282      0.00000
    117       1.5730      0.00000
    118       2.2530      0.00000
    119       2.2671      0.00000
    120       2.4074      0.00000

 soft charge-density along one line, spin component           1
         0         1         2         3         4         5         6         7         8         9
 total charge-density along one line

------------------------ aborting loop because EDIFF is reached ----------------------------------------

  FORCE on cell =-STRESS in cart. coord.  units (eV):
  Direction    XX          YY          ZZ          XY          YZ          ZX
  Alpha Z    89.55147    89.55147    89.55147
  Ewald   49376.19195 49330.76529-54294.14292    39.11254   -21.41940    12.21545
  Hartree 50081.80513 50052.77103-49713.77087    25.05332   -11.94637     6.86680
  E(xc)    -609.61888  -610.67794  -617.90440     0.91993     0.95176    -0.54656
  Local  ************************101445.40537   -57.30105    41.50605   -23.77191
  n-local  1213.61152  1215.55480  1248.94535    -1.70905     2.26733    -1.34031
  augment  -213.29222  -212.78586  -214.59126    -0.43958    -0.98035     0.57227
  Kinetic  2008.49457  2015.00083  2054.63529    -5.64307   -10.19821     5.89843
  Fock        0.00000     0.00000     0.00000     0.00000     0.00000     0.00000
  Total       0.12639     0.13176    -1.87196    -0.00696     0.18081    -0.10584
  in kB       0.08470     0.08831    -1.25456    -0.00466     0.12117    -0.07093

 VOLUME and BASIS-vectors are now :
  energy-cutoff  :      280.00
  volume of cell :     2390.64
      direct lattice vectors                 reciprocal lattice vectors
     8.285616461  4.784471194  0.000000000     0.060498202  0.104240381  0.000000000
    -8.306714270  4.820984683  0.000000000    -0.060039997  0.103975626  0.000000000
     0.000000000  0.000000000 30.000000000     0.000000000  0.000000000  0.033333333

  length of vectors
     9.567789961  9.604342521 30.000000000     0.120524228  0.120065532  0.033333333

 FORCES acting on ions
    electron-ion (+dipol)            ewald-force                    non-local-force                 convergence-correction
   0.132E+02 -.229E+02 0.134E+02   -.139E+02 0.242E+02 -.131E+02   0.771E+00 -.134E+01 -.277E+00   -.166E-01 0.147E-01 -.329E-01
   -.113E+02 0.216E+02 -.156E+02   0.118E+02 -.231E+02 0.154E+02   -.502E+00 0.148E+01 0.227E+00   -.202E-01 0.952E-02 0.329E-01
   -.129E+02 0.205E+02 -.156E+02   0.140E+02 -.217E+02 0.154E+02   -.103E+01 0.117E+01 0.228E+00   -.182E-01 0.926E-02 0.348E-01
   0.609E+01 0.277E+01 -.191E+01   -.586E+01 -.258E+01 0.193E+01   -.248E+00 -.933E-01 -.254E-01   -.364E-02 -.901E-01 -.112E-02
   -.574E+01 -.406E+01 -.193E+01   0.542E+01 0.397E+01 0.194E+01   0.203E+00 0.170E+00 -.250E-01   0.110E+00 -.585E-01 0.253E-02
   -.630E+01 0.116E+02 -.349E+01   0.619E+01 -.113E+02 0.348E+01   0.108E+00 -.187E+00 0.127E-01   0.509E-02 -.418E-01 -.393E-02
   0.186E+02 -.271E+02 0.233E+02   -.192E+02 0.277E+02 -.231E+02   0.562E+00 -.707E+00 -.225E+00   0.366E-01 0.427E-01 -.119E-01
   0.143E+02 -.298E+02 0.233E+02   -.145E+02 0.306E+02 -.231E+02   0.329E+00 -.833E+00 -.222E+00   -.582E-01 0.108E-01 -.139E-01
   -.173E+02 0.298E+02 -.193E+02   0.176E+02 -.304E+02 0.191E+02   -.380E+00 0.650E+00 0.172E+00   0.343E-01 0.445E-03 0.137E-01
   0.110E+02 -.188E+02 0.634E+03   -.111E+02 0.191E+02 -.638E+03   0.202E+00 -.349E+00 0.403E+01   -.105E-01 0.195E-01 0.753E-02
   0.275E+01 -.954E+01 -.613E+03   -.366E+01 0.106E+02 0.617E+03   0.910E+00 -.104E+01 -.349E+01   -.763E-02 -.173E-01 0.158E-01
   -.137E+01 0.941E+01 0.497E+03   0.901E+00 -.902E+01 -.502E+03   0.454E+00 -.393E+00 0.505E+01   0.475E-02 0.127E-01 0.131E-01
   0.628E+01 -.108E+02 -.505E+03   -.611E+01 0.105E+02 0.511E+03   -.176E+00 0.299E+00 -.524E+01   0.851E-03 0.204E-01 -.115E-01
   -.532E+01 0.147E+02 0.590E+03   0.615E+01 -.163E+02 -.593E+03   -.846E+00 0.169E+01 0.311E+01   0.815E-02 -.281E-01 0.132E-01
   -.709E+01 0.239E+02 -.610E+03   0.741E+01 -.246E+02 0.614E+03   -.324E+00 0.756E+00 -.365E+01   0.452E-03 -.305E-01 -.274E-01
   0.108E+02 -.213E+02 0.606E+03   -.109E+02 0.221E+02 -.610E+03   0.273E+00 -.811E+00 0.368E+01   -.751E-01 -.495E-01 -.626E-01
   0.849E+01 -.148E+02 -.607E+03   -.923E+01 0.161E+02 0.610E+03   0.685E+00 -.120E+01 -.320E+01   0.519E-01 -.844E-01 0.108E+00
   -.747E+01 0.575E+01 0.497E+03   0.734E+01 -.520E+01 -.502E+03   0.116E+00 -.590E+00 0.505E+01   0.883E-02 0.489E-01 0.449E-01
   0.577E+01 -.128E+02 -.489E+03   -.537E+01 0.130E+02 0.493E+03   -.240E+00 -.273E+00 -.487E+01   -.150E+00 0.763E-01 0.229E-01
   -.741E+01 0.128E+02 0.621E+03   0.807E+01 -.139E+02 -.624E+03   -.680E+00 0.116E+01 0.347E+01   0.287E-01 -.280E-01 -.112E-01
   -.173E+02 0.180E+02 -.610E+03   0.177E+02 -.186E+02 0.614E+03   -.493E+00 0.657E+00 -.365E+01   0.766E-01 -.751E-02 -.696E-01
   0.130E+02 -.200E+02 0.606E+03   -.136E+02 0.206E+02 -.610E+03   0.563E+00 -.639E+00 0.368E+01   0.841E-01 0.313E-01 -.644E-01
   0.684E+01 -.698E+01 -.613E+03   -.733E+01 0.832E+01 0.616E+03   0.460E+00 -.131E+01 -.349E+01   0.243E-01 -.178E-01 0.137E-01
   -.370E+01 0.651E+01 0.481E+03   0.369E+01 -.640E+01 -.486E+03   0.122E+00 -.215E+00 0.457E+01   -.112E+00 0.104E+00 -.398E-02
   0.809E+01 -.113E+02 -.488E+03   -.847E+01 0.111E+02 0.493E+03   0.359E+00 0.751E-01 -.487E+01   0.227E-01 0.122E+00 0.489E-01
   -.995E+01 0.118E+02 0.589E+03   0.110E+02 -.133E+02 -.593E+03   -.104E+01 0.159E+01 0.311E+01   0.338E-01 -.681E-01 0.592E-01
   -.115E+02 0.203E+02 -.587E+03   0.121E+02 -.212E+02 0.590E+03   -.588E+00 0.102E+01 -.323E+01   -.227E-01 -.620E-01 -.797E-01
   0.383E+00 -.665E+00 0.475E-01   0.462E-13 0.000E+00 0.682E-12   -.420E+00 0.727E+00 -.880E-01   0.371E-01 -.606E-01 0.374E-01

 POSITION                                       TOTAL-FORCE (eV/Angst)
      2.88820      4.56429     -0.05118         0.018698     -0.031471     -0.036818
     -5.67645      3.46528      0.05664         0.000933      0.002544      0.034577
     -0.16295      6.64937      0.05658         0.001944     -0.001206      0.032952
      2.80932      1.61903      0.00577        -0.019633      0.004087     -0.007494
      5.47624      3.15899      0.00579        -0.004350      0.017443     -0.007807
     -0.03510      0.06540      0.01010         0.003182      0.012942     -0.001367
      5.69768      6.11846     -0.07122        -0.012900     -0.003396     -0.026462
      0.13843      2.90879     -0.07114         0.009201      0.010366     -0.025186
     -2.94232      5.09619      0.06215        -0.001431     -0.003546      0.022371
     -0.89111      1.54378     28.25637         0.000147      0.000888     -0.012860
      0.94910      1.56596      1.64775        -0.007325      0.009775      0.003273
     -3.70742      3.20760     28.69077        -0.008434      0.007584      0.004104
     -1.85465      3.21218      1.33076         0.000817     -0.002166     -0.005873
     -6.45108      4.80137     28.42409         0.001030     -0.019543      0.003237
     -4.65779      4.81820      1.66811         0.001230      0.008026      0.021100
      1.87499      3.21021     28.34377         0.006841     -0.015227     -0.014550
      3.66061      3.22637      1.62375        -0.007730      0.011926     -0.026214
     -0.92425      4.81487     28.69090        -0.003718      0.010337      0.004094
      0.91970      4.80466      1.28254         0.016670     -0.004322     -0.011748
     -3.72246      6.44748     28.33400         0.003175     -0.006978      0.005890
     -1.84410      6.44327      1.66813        -0.010459      0.002051      0.021177
      4.56793      4.76503     28.34405         0.010208     -0.014540     -0.014718
      6.45517      4.74452      1.64632        -0.002677      0.009332     -0.000563
      1.82280      6.41046     28.74077         0.003354     -0.002128      0.019769
      3.66501      6.38962      1.28209        -0.005244     -0.015148     -0.013457
     -0.93270      7.98870     28.42531         0.015054     -0.007905      0.005716
      0.90969      7.99272      1.59703        -0.008580      0.020276      0.026858
    total drift:                               -0.000301      0.001036     -0.003070

  FREE ENERGIE OF THE ION-ELECTRON SYSTEM (eV)
  free  energy   TOTEN  =      -192.33689782 eV

  energy  without entropy=     -192.20397976  energy(sigma->0) =     -192.27043879

 d Force = 0.7182538E-03[ 0.612E-03, 0.825E-03]  d Energy = 0.6254910E-03 0.928E-04
 d Force = 0.1813562E+01[ 0.182E+01, 0.181E+01]  d Ewald  =-0.2641505E+01 0.446E+01

 Quasi-Newton relaxation of ions (Broydens 2nd method)
  g(Force)  = 0.736E-03   g(Stress)= 0.597E-04

 retain information from N=  2 steps
 eigenvalues of (default step * inverse Hessian matrix)
  average eigenvalue of G=   3.3871
 eigenvalue spectrum of G is  3.3871  3.3871

 reached required accuracy - stopping structural energy minimisation